# 2D Brownian dynamics
#
clear
#
# set variables
variable        Nsteps equal 2000000000
variable        myImage equal 100000
variable        myDump equal 10000   # Records Ip, Im, Npfree and Nmfree every this many timesteps
variable        myDumpSnap equal 50000 # Takes a snapshots of ALL positions and velocites every this many timesteps. Warning : heavy data.
variable        mythermo equal 100000
variable        myrestart equal 100000
#
variable	omega equal 0.0000000001	#Pulsation of E field
variable        mytemp equal 298   # Temperature
variable        z equal 2          # valency of ions
variable        Qf equal 0        # surface charge
variable        L equal 20000          # length
variable        w equal 20000          # width
variable        xi equal 138.3       # parameter of potential
variable        xT equal 60.0        # parameter of potential
variable        Np equal 4000        # number of positive ions
variable        Nm equal 4000        # number of negative ions
#variable        Nc equal 0        # surface charges (fixed)
variable	ConvFac equal (8.314*v_mytemp/1000/4.184)	# Useless. Conversion factor between kT and kcal/mol. Is equal to 0.592 at T_0 = 298K
variable        bias equal (0.592*0.500*v_z)     # kT_0/Angstrom  # External field
variable	flow equal (0.592*0.0)	# Constant external flow force along x direction
#
#time steps
variable	Deltat equal 5000.0
#
# set unit and atomic type
units           real      
atom_style      atomic
boundary        p p f     # Boundary conditions, p = periodic (in length and and width), f = force (for z, useless because fixed to 0)
#
# set box and create paticles in the box
region          box block 0.0 ${L} 0 $(v_w) -10.0 10.0 units box
create_box      2 box
create_atoms    1 random ${Np} 10224 box units box    # sets atoms randomly
create_atoms    2 random ${Nm} 1784 box units box
#label           loop
#variable        i loop ${Nc}
#variable        posi equal (v_i-1)*v_w/v_Nc
#create_atoms    3  single $(v_L/2) ${posi} 0.0
#next            i
#jump            input_bd loop
group gp type 1              # group of + ions
group gm type 2              # group of - ions
group gq union gp gm         # defines the group of all ions (+ or -)
set     atom * z 0.0         # forces all particles to stay at z=0
mass            1 23.0       # mass of particles (useless, put any number here)
mass            2 23.0
#mass            3 23.0
#
# set pairwise interaction
variable        Eint equal (0.592*v_z*v_z*v_xi/v_xT)   # strength of interaction between two ions DO NOT REPLACE 0.592 BY CONVFAC
variable	C equal 1.0                           # cut-off length iin angstrom
#variable        EintQ equal (v_Qf*v_Eint/v_z)           # strength of interaction between ion and fixed charge
pair_style      buck 200.0                              # type of pairwise potential
pair_coeff      1 1 ${Eint} ${xi} ${C}           # interagtion between two + ions
pair_coeff      1 2 $(-v_Eint) ${xi} ${C}         # interaction between + ion and - ion
pair_coeff      2 2 ${Eint} ${xi} ${C}
#pair_coeff      1 3 $(-v_EintQ) ${xi} 0.0 0.0 0.0       # interaction between + ion and fixed surface charge
#pair_coeff      2 3 ${EintQ} ${xi} 0.0 0.0 0.0
#pair_coeff      3 3 ${Eint} ${xi} 0.0 0.0 0.0
#
# set velocities of particles
velocity        all create ${mytemp} 4118 dist gaussian  # create particles velocity 
velocity        all set 0.0 0.0 0.0                      # set velocities to 0 (useless in the simu)
#
# set external force
#compute	positionx all property/atom x
#variable	flowx atom  $((c_positionx-v_L/2)/v_L*v_flow)
variable	varbias equal ${bias}*(cos(${omega}*step*${Deltat}))
variable	mvarbias equal -${bias}*(cos(${omega}*step*${Deltat})) 
fix     Efieldp gp addforce v_varbias 0.0 0.0              # extra force felt by + ions due to external field
fix     Efieldm gm addforce v_mvarbias 0.0 0.0
#fix	flow gq addforce ${v_flowx} 0.0 0.0		# extra force due to flow
#
# set 2D Langevin dynamics
fix     BD gq bd/2D ${mytemp} 9.6 18883
# compute current and density
compute Ip gp reduce sum vx
compute Im gm reduce sum vx
compute bj all coord/atom cutoff 60
compute	RDF all rdf 100 1 2 cutoff 200
variable sbj atom c_bj==0
compute sbjp gp reduce sum v_sbj
compute sbjm gm reduce sum v_sbj
fix aveE all ave/time 1 ${myDump} ${myDump} v_varbias file Efield.txt
fix avemE all ave/time 1 ${myDump} ${myDump} v_mvarbias file mEfield.txt
fix aveIp gp ave/time 1 ${myDump} ${myDump} c_Ip file Ip.txt
fix aveIm gm ave/time 1 ${myDump} ${myDump} c_Im file Im.txt
fix avebjp all ave/time 1 ${myDump} ${myDump} c_sbjp file Npfree.txt
fix avebjm all ave/time 1 ${myDump} ${myDump} c_sbjm file Nmfree.txt
#fix aveRDF all ave/time 1 ${myDump} ${myDumpSnap} c_RDF[*] file RDF.txt mode vector     #DECOMMENT TO COMPUTE RADIAL (pair-wise) DISTRIBUTION FUNCTION
#fix rhop gp ave/histo 1 ${myDump} ${myDump} $(v_x1) $(v_x2) 5 x mode vector file rhop.txt
#fix rhom gm ave/histo 1 ${myDump} ${myDump} $(v_x1-2*v_lc) $(v_x2+2*v_lc) 5 x mode vector file rhom.txt
#
# set time steps
timestep        5000.0
#
# set parameters of Verlet neighbor list
neighbor        50.0 bin
neigh_modify    delay 0 every 1 check yes
#
# set the display format of thermodynamic quantities
thermo          ${mythermo}
thermo_style custom etotal ke temp pe
thermo_modify   line multi format float %25.15f
thermo_modify   lost warn
#
# set time steps for recording restart file
#restart                ${myrestart} restart.*
#
# dump
#dump mydumpImage all image ${myImage} ./*.jpg type type zoom 20.0
#dump_modify mydumpImage adiam 1 50.0 acolor 1 red
#dump_modify mydumpImage adiam 2 50.0 acolor 2 blue
#dump snap all custom ${myDumpSnap} dump_atoms.txt id type x y z vx vy vz         # DECOMMENT THIS LINE FOR VISUALISATION
#
#
restart ${myDumpSnap} myrestart myrestart2        # DECOMMENT TO CREATE RESTART FILE
#
run ${Nsteps}
#
clear
