# TIP4P water box benchmark
clear

#
# step interval for outputs
variable	myThermo equal 1000
variable	myRestart equal 200000
variable        myImage equal 100
variable        myDump equal 50000
variable        myStepsPrep equal 10000
variable        mySteps equal 50000000
variable	bias equal 0.0	#ext field in V/Angstrom
variable	mytemp equal 298.0	#Temperature in kelvin

units		real	
atom_style	full		#	 style for read data : full = atomID moleculeID atom type q x y z
boundary p p f

read_data	grCaSO4_h1nm_20x20_TIP4P.data		# reads data from initial config
#set type 4 charge 1.0
#set type 5 charge -1.0
#read_restart	init.0

#variable lReserve equal 85.0
#variable lReserve2 equal 65.0
#variable lTop equal $(lz-v_lReserve2)
#variable lBottom equal ${lReserve}
#variable wall_area equal lx*ly

#region rTop block INF INF INF INF ${lTop} INF units box
#region rBottom block INF INF INF INF INF ${lBottom} units box
#region rReservoir union 2 rTop rBottom

#region rCenter1 block INF INF ${lleft1} ${lright1} INF INF units box
#region rCenter2 block INF INF ${lleft2} INF INF INF units box
#region rCenterU union 2 rCenter1 rCenter2
#region rLayer block INF INF INF INF ${lLayer01} ${lLayer02} units box
#region rCenter intersect 2 rCenterU rLayer


#replicate	1 1 1
group gO type 1
group gH type 2
group gH2O type 1 2
group gIon type 4 5 6
group gCa type 4
group gS type 5
group gX type 6
group gLiq type 1 2 4 5 6

group gSol type 1 2 
group gWall type 3

#group gTop region rTop
#group gBottom region rBottom
#group gWallT intersect gWall gTop
#group gWallB intersect gWall gBottom
#group gWallNtmp subtract gWall gWallB
#group gWallN subtract gWallNtmp gWallT

#group gTherm1 dynamic gSol region rTop every 100	#Update solvent in reservoirs
#group gTherm2 dynamic gSol region rBottom every 100	

group gImage union gIon gSol

#kspace_style	ewald 1.0e-4
kspace_style	pppm/tip4p 1.0e-4
#kspace_style	pppm 1.0e-4		#Deals with long-range coulombic terms

#pair_style	hybrid/overlay lj/cut/coul/long 9.8 9.8 table linear 1000 
#pair_style	lj/cut/coul/long 10.0 10.0	#cutoff LJ cutoff coulomb
#pair_style	lj/cut/tip4p/cut 1 2 1 1 0.1546 9.8 9.8
pair_style	lj/cut/tip4p/long 1 2 1 1 0.1250 12.0 10.0
#pair_style	lj/cut/coul/cut 8.8 8.5

kspace_modify slab 3.0
#kspace_modify slab nozforce

# set lj potentials of each particle species
#spce
#pair_coeff      1 1 0.1554 3.1655		#no need to define charges nor cross coeffcieints
#pair_coeff      2 2 0.0000 0.0000
#tip4p
pair_coeff      1 1 0.16275 3.16435
pair_coeff      2 2 0.0000 0.0000
#Werder WITH SPCE
#pair_coeff 	1 3 0.09378 3.19
#pair_coeff 	3 3 0.05659 3.2145
#AMBER96 potential WITH TIP4P
pair_coeff      3 3 0.0860 3.39967
#NaCl
pair_coeff      4 4 0.1000  3.224
pair_coeff      5 5 0.250  3.550
pair_coeff	6 6 0.200  3.150

pair_modify mix arithmetic #computes cross coefficients

# set bond styles
bond_style      harmonic
angle_style     harmonic
dihedral_style  none
#dihedral_style  none
improper_style  none

# set bond angle dihedral parameters
#########################
#SPCE
#bond_coeff      1 1000.0 1.0
#angle_coeff     1 100.00 109.47
#Tip4P
bond_coeff      1 1000.0 0.9572
angle_coeff     1 100.00 104.52

bond_coeff	2 1000.0 1.37
angle_coeff	2 100.00 109.47

special_bonds   lj/coul 0.0 0.0 0.5

# set parameters of Varlet neighbor lis
neighbor        2.0 bin
#neigh_modify	every 1 delay 10 check yes
neigh_modify delay 0 every 1 check yes

# set velocities of particles
velocity	gLiq create ${mytemp} 30619 dist gaussian

# freeze wall
fix freeze gWall setforce 0.0 0.0 0.0 

# minimize potential of system
min_style hftn
minimize 0.0 0.0 1000 1000

# melt wall
unfix freeze 

# set time step
reset_timestep 0
timestep	1.0
run_style	verlet

# set time steps of recording restart file	DECOMMENT AND FIX THIS
restart ${myRestart} myrestart myrestart2


##############################################################
# output imagefiles
#dump mydumpImage all image ${myImage} ./image/*.jpg type type  zoom 1.8 view 90 00
#dump_modify mydumpImage adiam 2 0.3
#dump_modify mydumpImage adiam 3 1.3
#dump_modify mydumpImage adiam 4 1.6
#dump_modify mydumpImage adiam 6 1.6
#dump_modify mydumpImage acolor 3 orange

##############################################################
# set display format for thermodynamic quantities
thermo	        ${myThermo}
#thermo_style	multi 
thermo_modify	format float %25.15f lost warn


# temperature
compute tempcal all temp
compute presscal all pressure tempcal ke
compute petotal all pe

# compute position in z of walls
#compute zEachTop gWallT property/atom z
#compute zAveTop gWallT reduce ave c_zEachTop
#compute zEachBottom gWallB property/atom z
#compute zAveBottom gWallB reduce ave c_zEachBottom

#variable cBottom equal count(gSol,rBottom)
#variable cTop equal count(gSol,rTop)

#variable cResW equal count(gH2O-MOL,rReservoir)
#variable cResE equal count(gETH-MOL,rReservoir)
#variable rResWE equal v_cResE/(v_cResE+v_cResW+0.0001)
#variable cLW equal count(gH2O-MOL,rCenter)
#variable cLE equal count(gETH-MOL,rCenter)
#variable rLWE equal v_cLE/(v_cLE+v_cLW+0.0001)

#dump da all atom ${myDump} dump.atom
##fix data all ave/time 1 1000 1000 c_zAveTop c_zAveBottom v_cRes file "./fdata.dat"
#fix data all ave/time 1 1000 1000 c_zAveBottom c_zAveTop v_cResW v_cResE v_rResWE v_cLW v_cLE v_rLWE file "./fdata.dat"

#fix data all ave/time 200 1 200 c_tempcal c_presscal c_petotal c_peH2Ototal c_peIontotal c_peNa_H2O c_peCl_H2O c_zAveTop c_zAveBottom file "./therm.dat"
#fix rdfNa_O all ave/time 200 1 200 c_rdfNa_O file "./rdf1.dat" mode vector
#fix rdfNa_Cl all ave/time 200 1 200 c_rdfNa_Cl file "./rfd2.dat" mode vector
#dump myDump all custom ${myDump} ./conf/dumpfile*.gz id mol type mass q x y z vx vy vz

# temperature recalculate for solute
compute tempsol gSol temp
compute tempion gIon temp
compute tempLiq gLiq temp

##compute pressure of water
#compute atomstress gSol stress/atom tempcal
#compute p gSol reduce/region rBottom sum c_atomstress[3]
#variable PressAve equal -c_p/v_vol_bottom
#thermo_style custom step temp vol lz v_PressAve
thermo_style custom step c_tempsol c_tempion c_tempLiq #c_zAveTop c_zAveBottom v_cTop v_cBottom


# add force
#fix extForce gSol gravity 1.52e-16 vector 1 0 0
#fix extForce gSol gravity 0.00005 vector 0 0 1
#fix extField gSol efield 0.002 0.0 0.0
#fix extChem gIon addforce 0.1000 0.0 0.0

# run NPT ensamble
# force onto top wall
#fix ft gWallT aveforce NULL NULL -0.00113576 
#fix ft2 gWallT setforce 0.0 0.0 NULL 
# freeze bottom wall
#fix fb gWall setforce 0.0 0.0 0.0 
#fix freeze gWall setforce 0.0 0.0 NULL 
fix freeze gWall setforce 0.0 0.0 0.0 
velocity gWall set 0 0 0
# force onto Bottom wall
#variable cWallB equal count(gWallB)
#variable 1atm equal 0.000014593*v_wall_area/v_cWallB
#print "force for 1atm is ${1atm}"
#fix ft gWallT aveforce NULL NULL $(-1*v_1atm) 
#fix ft2 gWallT setforce 0.0 0.0 NULL 
#fix ft3 gWallB aveforce NULL NULL $(1*v_1atm) 
#fix ft4 gWallB setforce 0.0 0.0 NULL 
#fix bw gWall aveforce NULL NULL  0
#fix bw gWallB aveforce NULL NULL  0.00113576 
# shake is for SPC/E rigid model
fix		2 all shake 0.0001 20 0 b 1 a 1
fix		3 gLiq nvt temp ${mytemp} ${mytemp} $(100.0*dt) 
#fix             3 all nvt 298.0 298.0 $(100.0*dt)
#fix		3 all nve 
#fix		4 gLiq temp/berendsen 298.0 298.0 200.0 #Fixes temperature

#fix		5 gTherm2 temp/berendsen 300.0 300.0 200.0
#fix_modify	3 temp tempsol

#fix		4 all npt temp 300.0 300.0 200.0 z 1.0 1.0 1000 dilate gH2O 
#fixedpoint 0 0 0

#run_style respa 2 10
variable Ex atom q*${bias}*0.592
fix extfield gLiq addforce v_Ex 0.0 0.0
#variable EO equal -1.0484*${bias}*0.592
#variable EH equal 0.5242*${bias}*0.592
#variable ENa equal 1.0*${bias}*0.592
#variable ECl equal -0.592*1.0*${bias}

#fix fieldO gO addforce v_EO 0.0 0.0
#fix fieldH gH addforce v_EH 0.0 0.0
#fix fieldNa gNa addforce v_ENa 0.0 0.0
#fix fieldCl gCl addforce v_ECl 0.0 0.0
#fix extField gLiq efield v_bias 0.0 0.0

compute ICa gCa reduce sum vx
compute ISulf gS reduce sum vx
fix aveINa gCa ave/time 1 ${myDump} ${myDump} c_ICa file ICa.txt
fix aveICl gS ave/time 1 ${myDump} ${myDump} c_ISulf file ISulf.txt

compute RDF all rdf 50 4 5 
fix aveRDF all ave/time 1 ${myDump} ${myDump} c_RDF[*] file RDF.txt mode vector

run		${myStepsPrep}

#reset_timestep 0            #DECOMMENT TO RESET TIMESTEP AFTER PREP

#unfix ft3
#unfix ft4
#fix ft3 gWallB aveforce NULL NULL $(400*v_1atm) 
#fix ft4 gWallB setforce 0.0 0.0 NULL 
dump da all atom ${myDump} dump.atom
#fix data all ave/time 1 5000 5000 c_zAveBottom c_zAveTop v_cBottom v_cTop file "./fdata.dat"

run		${mySteps}

clear
